
Gurobi 9.0.2 (win64) logging started Fri Sep 29 20:33:25 2023

Changed value of parameter LogFile to C:\Users\u0138303\OneDrive - KU Leuven\JointResearch\05. Models\06.Benchmarking\I.Representative_days_based_on_Line_Benefit_NN_OC_fy_4\3-bus_ByStages_nc10/openStarNet_3-bus_ByStages_nc10.log
   Prev:   Default: 
Changed value of parameter Method to 2
   Prev: -1  Min: -1  Max: 5  Default: -1
Changed value of parameter MIPFocus to 1
   Prev: 0  Min: 0  Max: 3  Default: 0
Changed value of parameter Presolve to 2
   Prev: -1  Min: -1  Max: 2  Default: -1
Changed value of parameter RINS to 100
   Prev: -1  Min: -1  Max: 2000000000  Default: -1
Parameter Crossover unchanged
   Value: -1  Min: -1  Max: 5  Default: -1
Changed value of parameter MIPGap to 0.01
   Prev: 0.0001  Min: 0.0  Max: inf  Default: 0.0001
Changed value of parameter Threads to 6
   Prev: 0  Min: 0  Max: 1024  Default: 0
Changed value of parameter TimeLimit to 76000.0
   Prev: inf  Min: 0.0  Max: inf  Default: inf
Changed value of parameter IterationLimit to 76000000.0
   Prev: inf  Min: 0.0  Max: inf  Default: inf
Gurobi Optimizer version 9.0.2 build v9.0.2rc0 (win64)
Optimize a model with 58804 rows, 18630 columns and 191329 nonzeros
Model fingerprint: 0x7ac371c5
Variable types: 18621 continuous, 9 integer (9 binary)
Coefficient statistics:
  Matrix range     [1e-02, 4e+02]
  Objective range  [1e+00, 1e+00]
  Bounds range     [6e-06, 1e+00]
  RHS range        [6e-06, 1e+00]
Presolve removed 14884 rows and 2164 columns
Presolve time: 0.83s
Presolved: 43920 rows, 16466 columns, 158537 nonzeros
Variable types: 16457 continuous, 9 integer (9 binary)
Presolved: 43920 rows, 16466 columns, 158537 nonzeros

Root barrier log...

Ordering time: 0.03s

Barrier statistics:
 Dense cols : 9
 AA' NZ     : 6.022e+05
 Factor NZ  : 1.059e+06 (roughly 30 MBytes of memory)
 Factor Ops : 3.993e+07 (less than 1 second per iteration)
 Threads    : 5

                  Objective                Residual
Iter       Primal          Dual         Primal    Dual     Compl     Time
   0   6.45536721e+04 -1.82006770e+07  7.55e-01 2.18e+02  4.87e+02     1s
   1   1.89310087e+04 -2.23908008e+06  1.01e-01 2.29e+01  4.53e+01     2s
   2   8.35612239e+03 -6.85167774e+05  4.84e-03 6.23e-10  9.99e+00     2s
   3   1.98504692e+03 -5.43369238e+04  4.28e-05 2.19e-10  7.81e-01     2s
   4   5.39867627e+02 -4.32353668e+03  3.89e-07 1.54e-11  6.74e-02     2s
   5   3.42579345e+02 -1.00276653e+03  9.49e-08 2.98e-03  1.86e-02     2s
   6   2.38421808e+02 -1.52550586e+02  3.58e-08 7.18e-04  5.41e-03     2s
   7   1.80082982e+02  2.34558628e+01  1.25e-08 2.55e-04  2.16e-03     2s
   8   1.59273974e+02  9.62216073e+01  3.79e-09 2.07e-05  8.71e-04     2s
   9   1.52616439e+02  1.36602677e+02  1.46e-09 4.06e-13  2.21e-04     2s
  10   1.49766658e+02  1.41465213e+02  6.80e-10 4.77e-13  1.15e-04     2s
  11   1.48190122e+02  1.44856666e+02  2.52e-10 4.28e-13  4.60e-05     2s
  12   1.47532978e+02  1.46848667e+02  6.70e-11 5.84e-13  9.44e-06     2s
  13   1.47423235e+02  1.47088853e+02  4.68e-11 4.80e-13  4.61e-06     2s
  14   1.47401075e+02  1.47123887e+02  1.31e-10 3.59e-13  3.82e-06     3s
  15   1.47368963e+02  1.47161709e+02  6.30e-10 3.56e-13  2.86e-06     3s
  16   1.47340098e+02  1.47181412e+02  5.81e-10 3.77e-13  2.19e-06     3s
  17   1.47297131e+02  1.47253115e+02  2.08e-10 3.17e-13  6.07e-07     3s
  18   1.47281304e+02  1.47265235e+02  1.68e-10 3.09e-13  2.22e-07     3s
  19   1.47278552e+02  1.47271623e+02  1.47e-10 3.68e-13  9.56e-08     3s
  20   1.47278042e+02  1.47275298e+02  9.87e-11 3.48e-13  3.78e-08     3s
  21   1.47277268e+02  1.47277118e+02  2.21e-10 3.18e-13  2.06e-09     3s
  22   1.47277218e+02  1.47277194e+02  8.83e-11 4.69e-13  3.30e-10     3s
  23   1.47277210e+02  1.47277204e+02  6.90e-09 6.16e-13  8.08e-11     3s
  24   1.47277210e+02  1.47277204e+02  4.56e-08 6.16e-13  8.08e-11     3s
  25   1.47277210e+02  1.47277204e+02  4.56e-08 6.16e-13  8.08e-11    41s
  26   1.47277210e+02  1.47277204e+02  2.79e-07 6.16e-13  8.08e-11    41s

Barrier solved model in 26 iterations and 40.88 seconds
Optimal objective 1.47277210e+02


Root crossover log...

    5640 DPushes remaining with DInf 2.5174203e-02                41s
       0 DPushes remaining with DInf 0.0000000e+00                41s

    3228 PPushes remaining with PInf 2.1010310e-03                41s
       0 PPushes remaining with PInf 0.0000000e+00                41s

  Push phase complete: Pinf 0.0000000e+00, Dinf 2.9889659e-02     41s


Root simplex log...

Iteration    Objective       Primal Inf.    Dual Inf.      Time
    5521    1.4727720e+02   0.000000e+00   2.988966e-02     41s
    5554    1.4727720e+02   0.000000e+00   0.000000e+00     41s
    5554    1.4727720e+02   0.000000e+00   0.000000e+00     41s

Root relaxation: objective 1.472772e+02, 5554 iterations, 40.39 seconds

    Nodes    |    Current Node    |     Objective Bounds      |     Work
 Expl Unexpl |  Obj  Depth IntInf | Incumbent    BestBd   Gap | It/Node Time

     0     0  147.27720    0    6          -  147.27720      -     -   41s
H    0     0                     180.0839202  147.27720  18.2%     -   41s
     0     0  147.33327    0    6  180.08392  147.33327  18.2%     -   43s
     0     2  147.33327    0    6  180.08392  147.33327  18.2%     -   68s
     1     4  150.11666    1    6  180.08392  147.33327  18.2%  2744   90s
     3     2  155.77550    2    5  180.08392  150.12076  16.6% 14414  101s
     7     4  159.12546    3    4  180.08392  155.77844  13.5%  9238  106s
    13     6  165.52365    5    2  180.08392  163.36047  9.29%  6603  110s
*   38     0               9     178.7635853  172.59361  3.45%  2804  112s

Explored 43 nodes (114733 simplex iterations) in 112.18 seconds
Thread count was 6 (of 8 available processors)

Solution count 2: 178.764 180.084 

Optimal solution found (tolerance 1.00e-02)
Best objective 1.787635853000e+02, best bound 1.787635853000e+02, gap 0.0000%

Gurobi 9.0.2 (win64) logging started Fri Sep 29 20:35:26 2023

Changed value of parameter LogFile to C:\Users\u0138303\OneDrive - KU Leuven\JointResearch\05. Models\06.Benchmarking\I.Representative_days_based_on_Line_Benefit_NN_OC_fy_4\3-bus_ByStages_nc10/openStarNet_3-bus_ByStages_nc10.log
   Prev:   Default: 
Changed value of parameter Method to 2
   Prev: -1  Min: -1  Max: 5  Default: -1
Changed value of parameter MIPFocus to 1
   Prev: 0  Min: 0  Max: 3  Default: 0
Changed value of parameter Presolve to 2
   Prev: -1  Min: -1  Max: 2  Default: -1
Changed value of parameter RINS to 100
   Prev: -1  Min: -1  Max: 2000000000  Default: -1
Parameter Crossover unchanged
   Value: -1  Min: -1  Max: 5  Default: -1
Changed value of parameter MIPGap to 0.01
   Prev: 0.0001  Min: 0.0  Max: inf  Default: 0.0001
Changed value of parameter Threads to 6
   Prev: 0  Min: 0  Max: 1024  Default: 0
Changed value of parameter TimeLimit to 76000.0
   Prev: inf  Min: 0.0  Max: inf  Default: inf
Changed value of parameter IterationLimit to 76000000.0
   Prev: inf  Min: 0.0  Max: inf  Default: inf
No parameters matching 'relax_integrality' found
Gurobi Optimizer version 9.0.2 build v9.0.2rc0 (win64)
Optimize a model with 58804 rows, 18621 columns and 156760 nonzeros
Model fingerprint: 0xfa6669d7
Coefficient statistics:
  Matrix range     [1e-02, 4e+02]
  Objective range  [1e+00, 1e+00]
  Bounds range     [6e-06, 1e+00]
  RHS range        [6e-06, 2e+00]
Presolve removed 11524 rows and 52804 columns
Presolve time: 0.19s
Presolved: 7097 rows, 20297 columns, 58149 nonzeros

Ordering time: 0.00s

Barrier statistics:
 Free vars  : 3840
 AA' NZ     : 3.201e+04
 Factor NZ  : 7.433e+04 (roughly 12 MBytes of memory)
 Factor Ops : 9.337e+05 (less than 1 second per iteration)
 Threads    : 1

                  Objective                Residual
Iter       Primal          Dual         Primal    Dual     Compl     Time
   0  -1.35891230e+06  1.12780991e+04  1.02e+03 2.12e-01  1.11e+03     0s
   1  -7.66339210e+05  1.08408383e+04  3.65e-02 5.29e-01  1.96e+02     0s
   2  -2.40123313e+05  6.30067788e+03  5.35e-11 2.10e-02  1.67e+01     0s
   3  -8.73277713e+04  2.37321886e+03  8.32e-10 1.87e-03  3.93e+00     0s
   4  -1.65274270e+04  1.14775952e+03  1.34e-10 1.01e-03  7.29e-01     0s
   5  -4.82838625e+03  4.73131301e+02  3.10e-09 3.35e-04  2.25e-01     0s
   6  -2.19616820e+03  4.12800340e+02  1.24e-09 2.46e-04  1.16e-01     0s
   7  -1.38653663e+03  3.40455607e+02  1.15e-09 1.08e-04  7.96e-02     0s
   8  -4.52973735e+02  2.81056125e+02  4.75e-10 3.68e-05  3.42e-02     0s
   9  -1.67824836e+02  2.36976572e+02  2.56e-10 1.52e-05  1.89e-02     0s
  10  -1.26893876e+01  2.09784956e+02  1.33e-10 5.82e-06  1.04e-02     0s
  11   7.90910621e+01  1.93761207e+02  6.82e-11 2.51e-06  5.36e-03     0s
  12   1.21149157e+02  1.83725232e+02  4.13e-11 7.03e-07  2.93e-03     0s
  13   1.59495394e+02  1.80825838e+02  1.26e-11 3.00e-07  9.98e-04     0s
  14   1.73292729e+02  1.79266653e+02  3.19e-12 1.89e-07  2.79e-04     0s
  15   1.78572140e+02  1.78794866e+02  1.43e-11 3.74e-08  1.04e-05     0s
  16   1.78650982e+02  1.78766040e+02  1.66e-11 6.22e-09  5.38e-06     0s
  17   1.78718112e+02  1.78764927e+02  3.20e-11 2.85e-09  2.19e-06     0s
  18   1.78747771e+02  1.78764264e+02  4.68e-11 1.61e-09  7.71e-07     0s
  19   1.78759304e+02  1.78763839e+02  1.10e-11 2.42e-10  2.12e-07     0s
  20   1.78763115e+02  1.78763599e+02  3.73e-11 1.39e-09  2.27e-08     1s
  21   1.78763552e+02  1.78763586e+02  4.68e-11 5.84e-11  1.60e-09     1s
  22   1.78763584e+02  1.78763585e+02  8.30e-12 1.00e-12  4.18e-11     1s

Barrier solved model in 22 iterations and 0.53 seconds
Optimal objective 1.78763584e+02

Crossover log...

       0 DPushes remaining with DInf 0.0000000e+00                 1s

     319 PPushes remaining with PInf 0.0000000e+00                 1s
       0 PPushes remaining with PInf 0.0000000e+00                 1s

  Push phase complete: Pinf 0.0000000e+00, Dinf 3.0371582e-12      1s

Iteration    Objective       Primal Inf.    Dual Inf.      Time
    1759    1.7876359e+02   0.000000e+00   0.000000e+00      1s

Solved in 1759 iterations and 0.67 seconds
Optimal objective  1.787635853e+02

Gurobi 9.0.2 (win64) logging started Fri Sep 29 21:16:44 2023

Changed value of parameter LogFile to C:\Users\u0138303\OneDrive - KU Leuven\JointResearch\05. Models\06.Benchmarking\I.Representative_days_based_on_Line_Benefit_NN_OC_fy_4\3-bus_ByStages_nc10/openStarNet_3-bus_ByStages_nc10.log
   Prev:   Default: 
Changed value of parameter Method to 2
   Prev: -1  Min: -1  Max: 5  Default: -1
Changed value of parameter MIPFocus to 1
   Prev: 0  Min: 0  Max: 3  Default: 0
Changed value of parameter Presolve to 2
   Prev: -1  Min: -1  Max: 2  Default: -1
Changed value of parameter RINS to 100
   Prev: -1  Min: -1  Max: 2000000000  Default: -1
Parameter Crossover unchanged
   Value: -1  Min: -1  Max: 5  Default: -1
Changed value of parameter MIPGap to 0.01
   Prev: 0.0001  Min: 0.0  Max: inf  Default: 0.0001
Changed value of parameter Threads to 6
   Prev: 0  Min: 0  Max: 1024  Default: 0
Changed value of parameter TimeLimit to 76000.0
   Prev: inf  Min: 0.0  Max: inf  Default: inf
Changed value of parameter IterationLimit to 76000000.0
   Prev: inf  Min: 0.0  Max: inf  Default: inf
Gurobi Optimizer version 9.0.2 build v9.0.2rc0 (win64)
Optimize a model with 58804 rows, 18630 columns and 191329 nonzeros
Model fingerprint: 0x7ac371c5
Variable types: 18621 continuous, 9 integer (9 binary)
Coefficient statistics:
  Matrix range     [1e-02, 4e+02]
  Objective range  [1e+00, 1e+00]
  Bounds range     [6e-06, 1e+00]
  RHS range        [6e-06, 1e+00]
Presolve removed 14884 rows and 2164 columns
Presolve time: 0.76s
Presolved: 43920 rows, 16466 columns, 158537 nonzeros
Variable types: 16457 continuous, 9 integer (9 binary)
Presolved: 43920 rows, 16466 columns, 158537 nonzeros

Root barrier log...

Ordering time: 0.03s

Barrier statistics:
 Dense cols : 9
 AA' NZ     : 6.022e+05
 Factor NZ  : 1.059e+06 (roughly 30 MBytes of memory)
 Factor Ops : 3.993e+07 (less than 1 second per iteration)
 Threads    : 5

                  Objective                Residual
Iter       Primal          Dual         Primal    Dual     Compl     Time
   0   6.45536721e+04 -1.82006770e+07  7.55e-01 2.18e+02  4.87e+02     1s
   1   1.89310087e+04 -2.23908008e+06  1.01e-01 2.29e+01  4.53e+01     1s
   2   8.35612239e+03 -6.85167774e+05  4.84e-03 6.23e-10  9.99e+00     1s
   3   1.98504692e+03 -5.43369238e+04  4.28e-05 2.19e-10  7.81e-01     1s
   4   5.39867627e+02 -4.32353668e+03  3.89e-07 1.54e-11  6.74e-02     2s
   5   3.42579345e+02 -1.00276653e+03  9.49e-08 2.98e-03  1.86e-02     2s
   6   2.38421808e+02 -1.52550586e+02  3.58e-08 7.18e-04  5.41e-03     2s
   7   1.80082982e+02  2.34558628e+01  1.25e-08 2.55e-04  2.16e-03     2s
   8   1.59273974e+02  9.62216073e+01  3.79e-09 2.07e-05  8.71e-04     2s
   9   1.52616439e+02  1.36602677e+02  1.46e-09 4.06e-13  2.21e-04     2s
  10   1.49766658e+02  1.41465213e+02  6.80e-10 4.77e-13  1.15e-04     2s
  11   1.48190122e+02  1.44856666e+02  2.52e-10 4.28e-13  4.60e-05     2s
  12   1.47532978e+02  1.46848667e+02  6.70e-11 5.84e-13  9.44e-06     2s
  13   1.47423235e+02  1.47088853e+02  4.68e-11 4.80e-13  4.61e-06     2s
  14   1.47401075e+02  1.47123887e+02  1.31e-10 3.59e-13  3.82e-06     2s
  15   1.47368963e+02  1.47161709e+02  6.30e-10 3.56e-13  2.86e-06     2s
  16   1.47340098e+02  1.47181412e+02  5.81e-10 3.77e-13  2.19e-06     2s
  17   1.47297131e+02  1.47253115e+02  2.08e-10 3.17e-13  6.07e-07     2s
  18   1.47281304e+02  1.47265235e+02  1.68e-10 3.09e-13  2.22e-07     2s
  19   1.47278552e+02  1.47271623e+02  1.47e-10 3.68e-13  9.56e-08     2s
  20   1.47278042e+02  1.47275298e+02  9.87e-11 3.48e-13  3.78e-08     2s
  21   1.47277268e+02  1.47277118e+02  2.21e-10 3.18e-13  2.06e-09     2s
  22   1.47277218e+02  1.47277194e+02  8.83e-11 4.69e-13  3.30e-10     3s
  23   1.47277210e+02  1.47277204e+02  6.90e-09 6.16e-13  8.08e-11     3s
  24   1.47277210e+02  1.47277204e+02  4.56e-08 6.16e-13  8.08e-11     3s
  25   1.47277210e+02  1.47277204e+02  4.56e-08 6.16e-13  8.08e-11     3s
  26   1.47277210e+02  1.47277204e+02  2.79e-07 6.16e-13  8.08e-11     3s

Barrier solved model in 26 iterations and 2.81 seconds
Optimal objective 1.47277210e+02


Root relaxation: objective 1.472772e+02, 5554 iterations, 2.30 seconds

    Nodes    |    Current Node    |     Objective Bounds      |     Work
 Expl Unexpl |  Obj  Depth IntInf | Incumbent    BestBd   Gap | It/Node Time

     0     0  147.27720    0    6          -  147.27720      -     -    3s
H    0     0                     180.0839202  147.27720  18.2%     -    3s
     0     0  147.33327    0    6  180.08392  147.33327  18.2%     -    5s
     0     2  147.33327    0    6  180.08392  147.33327  18.2%     -   25s
     1     4  150.11666    1    6  180.08392  147.33327  18.2%  2744   44s
     3     2  155.77550    2    5  180.08392  150.12076  16.6% 14414   53s
     7     4  159.12546    3    4  180.08392  155.77844  13.5%  9238   59s
     9     6  163.26738    4    3  180.08392  159.12839  11.6%  8240   62s
*   38     0               9     178.7635853  172.59361  3.45%  2804   64s

Explored 43 nodes (114733 simplex iterations) in 65.01 seconds
Thread count was 6 (of 8 available processors)

Solution count 2: 178.764 180.084 

Optimal solution found (tolerance 1.00e-02)
Best objective 1.787635853000e+02, best bound 1.787635853000e+02, gap 0.0000%

Gurobi 9.0.2 (win64) logging started Fri Sep 29 21:17:57 2023

Changed value of parameter LogFile to C:\Users\u0138303\OneDrive - KU Leuven\JointResearch\05. Models\06.Benchmarking\I.Representative_days_based_on_Line_Benefit_NN_OC_fy_4\3-bus_ByStages_nc10/openStarNet_3-bus_ByStages_nc10.log
   Prev:   Default: 
Changed value of parameter Method to 2
   Prev: -1  Min: -1  Max: 5  Default: -1
Changed value of parameter MIPFocus to 1
   Prev: 0  Min: 0  Max: 3  Default: 0
Changed value of parameter Presolve to 2
   Prev: -1  Min: -1  Max: 2  Default: -1
Changed value of parameter RINS to 100
   Prev: -1  Min: -1  Max: 2000000000  Default: -1
Parameter Crossover unchanged
   Value: -1  Min: -1  Max: 5  Default: -1
Changed value of parameter MIPGap to 0.01
   Prev: 0.0001  Min: 0.0  Max: inf  Default: 0.0001
Changed value of parameter Threads to 6
   Prev: 0  Min: 0  Max: 1024  Default: 0
Changed value of parameter TimeLimit to 76000.0
   Prev: inf  Min: 0.0  Max: inf  Default: inf
Changed value of parameter IterationLimit to 76000000.0
   Prev: inf  Min: 0.0  Max: inf  Default: inf
No parameters matching 'relax_integrality' found
Gurobi Optimizer version 9.0.2 build v9.0.2rc0 (win64)
Optimize a model with 58804 rows, 18621 columns and 156760 nonzeros
Model fingerprint: 0xfa6669d7
Coefficient statistics:
  Matrix range     [1e-02, 4e+02]
  Objective range  [1e+00, 1e+00]
  Bounds range     [6e-06, 1e+00]
  RHS range        [6e-06, 2e+00]
Presolve removed 11524 rows and 52804 columns
Presolve time: 0.29s
Presolved: 7097 rows, 20297 columns, 58149 nonzeros

Ordering time: 0.00s

Barrier statistics:
 Free vars  : 3840
 AA' NZ     : 3.201e+04
 Factor NZ  : 7.433e+04 (roughly 12 MBytes of memory)
 Factor Ops : 9.337e+05 (less than 1 second per iteration)
 Threads    : 1

                  Objective                Residual
Iter       Primal          Dual         Primal    Dual     Compl     Time
   0  -1.35891230e+06  1.12780991e+04  1.02e+03 2.12e-01  1.11e+03     0s
   1  -7.66339210e+05  1.08408383e+04  3.65e-02 5.29e-01  1.96e+02     0s
   2  -2.40123313e+05  6.30067788e+03  5.35e-11 2.10e-02  1.67e+01     0s
   3  -8.73277713e+04  2.37321886e+03  8.32e-10 1.87e-03  3.93e+00     0s
   4  -1.65274270e+04  1.14775952e+03  1.34e-10 1.01e-03  7.29e-01     0s
   5  -4.82838625e+03  4.73131301e+02  3.10e-09 3.35e-04  2.25e-01     0s
   6  -2.19616820e+03  4.12800340e+02  1.24e-09 2.46e-04  1.16e-01     0s
   7  -1.38653663e+03  3.40455607e+02  1.15e-09 1.08e-04  7.96e-02     0s
   8  -4.52973735e+02  2.81056125e+02  4.75e-10 3.68e-05  3.42e-02     0s
   9  -1.67824836e+02  2.36976572e+02  2.56e-10 1.52e-05  1.89e-02     1s
  10  -1.26893876e+01  2.09784956e+02  1.33e-10 5.82e-06  1.04e-02     1s
  11   7.90910621e+01  1.93761207e+02  6.82e-11 2.51e-06  5.36e-03     1s
  12   1.21149157e+02  1.83725232e+02  4.13e-11 7.03e-07  2.93e-03     1s
  13   1.59495394e+02  1.80825838e+02  1.26e-11 3.00e-07  9.98e-04     1s
  14   1.73292729e+02  1.79266653e+02  3.19e-12 1.89e-07  2.79e-04     1s
  15   1.78572140e+02  1.78794866e+02  1.43e-11 3.74e-08  1.04e-05     1s
  16   1.78650982e+02  1.78766040e+02  1.66e-11 6.22e-09  5.38e-06     1s
  17   1.78718112e+02  1.78764927e+02  3.20e-11 2.85e-09  2.19e-06     1s
  18   1.78747771e+02  1.78764264e+02  4.68e-11 1.61e-09  7.71e-07     1s
  19   1.78759304e+02  1.78763839e+02  1.10e-11 2.42e-10  2.12e-07     1s
  20   1.78763115e+02  1.78763599e+02  3.73e-11 1.39e-09  2.27e-08     1s
  21   1.78763552e+02  1.78763586e+02  4.68e-11 5.84e-11  1.60e-09     1s
  22   1.78763584e+02  1.78763585e+02  8.30e-12 1.00e-12  4.18e-11     1s

Barrier solved model in 22 iterations and 0.71 seconds
Optimal objective 1.78763584e+02

Crossover log...

       0 DPushes remaining with DInf 0.0000000e+00                 1s

     319 PPushes remaining with PInf 0.0000000e+00                 1s
       0 PPushes remaining with PInf 0.0000000e+00                 1s

  Push phase complete: Pinf 0.0000000e+00, Dinf 3.0371582e-12      1s

Iteration    Objective       Primal Inf.    Dual Inf.      Time
    1759    1.7876359e+02   0.000000e+00   0.000000e+00      1s

Solved in 1759 iterations and 0.91 seconds
Optimal objective  1.787635853e+02
